c "239931.clq"
p edge 100 1344
e 1 17
e 1 19
e 1 20
e 1 21
e 1 22
e 1 24
e 1 25
e 1 26
e 1 28
e 1 32
e 1 33
e 1 35
e 1 37
e 1 38
e 1 41
e 1 43
e 1 46
e 1 48
e 1 49
e 1 60
e 1 63
e 1 66
e 1 77
e 1 84
e 1 85
e 1 87
e 1 91
e 1 92
e 1 94
e 1 95
e 1 98
e 1 100
e 2 17
e 2 18
e 2 20
e 2 21
e 2 23
e 2 24
e 2 31
e 2 38
e 2 40
e 2 42
e 2 45
e 2 46
e 2 50
e 2 53
e 2 61
e 2 63
e 2 72
e 2 78
e 2 82
e 2 86
e 2 91
e 2 96
e 3 17
e 3 18
e 3 19
e 3 23
e 3 24
e 3 30
e 3 33
e 3 41
e 3 44
e 3 49
e 3 55
e 3 61
e 3 68
e 3 76
e 3 80
e 3 84
e 4 17
e 4 18
e 4 19
e 4 20
e 4 21
e 4 22
e 4 23
e 4 25
e 4 26
e 4 27
e 4 29
e 4 30
e 4 32
e 4 36
e 4 39
e 4 48
e 4 56
e 4 57
e 4 65
e 4 80
e 4 81
e 4 85
e 4 92
e 4 93
e 5 17
e 5 18
e 5 19
e 5 20
e 5 21
e 5 22
e 5 23
e 5 25
e 5 26
e 5 27
e 5 29
e 5 31
e 5 32
e 5 33
e 5 34
e 5 36
e 5 39
e 5 40
e 5 44
e 5 47
e 5 48
e 5 50
e 5 57
e 5 60
e 5 63
e 5 64
e 5 67
e 5 68
e 5 69
e 5 71
e 5 76
e 5 80
e 5 81
e 5 83
e 5 85
e 5 88
e 5 91
e 5 93
e 5 96
e 5 98
e 6 17
e 6 18
e 6 20
e 6 25
e 6 29
e 6 30
e 6 36
e 7 17
e 7 18
e 7 19
e 7 20
e 7 21
e 7 22
e 7 23
e 7 24
e 7 26
e 7 27
e 7 28
e 7 29
e 7 30
e 7 31
e 7 33
e 7 35
e 7 39
e 7 40
e 7 43
e 7 44
e 7 45
e 7 46
e 7 47
e 7 52
e 7 53
e 7 58
e 7 61
e 7 63
e 7 69
e 7 73
e 7 78
e 7 83
e 7 86
e 7 89
e 7 98
e 7 99
e 8 17
e 8 18
e 8 19
e 8 21
e 8 22
e 8 25
e 8 27
e 8 34
e 8 36
e 8 41
e 8 42
e 8 43
e 8 44
e 8 50
e 8 52
e 8 54
e 8 57
e 8 61
e 8 62
e 8 70
e 8 71
e 8 84
e 8 85
e 8 89
e 8 90
e 8 92
e 9 17
e 9 18
e 9 19
e 9 25
e 9 28
e 9 30
e 9 31
e 9 36
e 9 38
e 9 49
e 9 51
e 9 53
e 9 77
e 9 87
e 9 96
e 10 17
e 10 18
e 10 19
e 10 20
e 10 21
e 10 22
e 10 24
e 10 25
e 10 28
e 10 31
e 10 32
e 10 37
e 10 43
e 10 47
e 10 52
e 10 55
e 10 60
e 10 75
e 11 17
e 11 18
e 11 19
e 11 20
e 11 21
e 11 22
e 11 24
e 11 26
e 11 27
e 11 28
e 11 29
e 11 30
e 11 33
e 11 34
e 11 36
e 11 38
e 11 39
e 11 40
e 11 42
e 11 47
e 11 48
e 11 55
e 11 57
e 11 76
e 11 77
e 11 84
e 11 85
e 12 17
e 12 18
e 12 19
e 12 20
e 12 21
e 12 22
e 12 23
e 12 25
e 12 26
e 12 33
e 12 40
e 12 49
e 12 52
e 12 59
e 12 61
e 12 68
e 12 72
e 12 87
e 12 92
e 12 95
e 13 17
e 13 18
e 13 19
e 13 20
e 13 21
e 13 22
e 13 23
e 13 24
e 13 25
e 13 26
e 13 27
e 13 28
e 13 30
e 13 31
e 13 32
e 13 33
e 13 35
e 13 36
e 13 39
e 13 40
e 13 44
e 13 45
e 13 55
e 13 60
e 13 64
e 13 65
e 13 68
e 13 70
e 13 71
e 13 79
e 13 80
e 13 85
e 13 87
e 13 88
e 14 17
e 14 18
e 14 19
e 14 20
e 14 23
e 14 24
e 14 26
e 14 28
e 14 29
e 14 32
e 14 35
e 14 47
e 14 50
e 14 66
e 14 73
e 14 78
e 14 80
e 14 86
e 14 88
e 14 90
e 14 98
e 15 17
e 15 18
e 15 19
e 15 20
e 15 21
e 15 22
e 15 23
e 15 24
e 15 32
e 15 33
e 15 34
e 15 37
e 15 40
e 15 43
e 15 47
e 15 49
e 15 51
e 15 52
e 15 54
e 15 57
e 15 73
e 15 74
e 15 83
e 15 85
e 16 17
e 16 18
e 16 19
e 16 20
e 16 21
e 16 22
e 16 23
e 16 24
e 16 25
e 16 26
e 16 27
e 16 29
e 16 30
e 16 32
e 16 33
e 16 36
e 16 37
e 16 38
e 16 39
e 16 40
e 16 41
e 16 42
e 16 45
e 16 48
e 16 50
e 16 51
e 16 52
e 16 55
e 16 58
e 16 61
e 16 63
e 16 64
e 16 68
e 16 73
e 16 74
e 16 78
e 16 87
e 16 88
e 16 90
e 16 91
e 16 93
e 16 95
e 16 97
e 16 99
e 17 18
e 17 19
e 17 20
e 17 21
e 17 22
e 17 23
e 17 24
e 17 26
e 17 27
e 17 28
e 17 30
e 17 31
e 17 33
e 17 34
e 17 35
e 17 36
e 17 38
e 17 39
e 17 40
e 17 43
e 17 48
e 17 50
e 17 55
e 17 57
e 17 61
e 17 63
e 17 67
e 17 69
e 17 74
e 17 75
e 17 77
e 17 82
e 17 86
e 17 88
e 17 97
e 18 19
e 18 20
e 18 21
e 18 22
e 18 23
e 18 24
e 18 25
e 18 26
e 18 27
e 18 28
e 18 29
e 18 30
e 18 31
e 18 32
e 18 33
e 18 35
e 18 37
e 18 38
e 18 41
e 18 42
e 18 43
e 18 46
e 18 47
e 18 48
e 18 50
e 18 53
e 18 58
e 18 59
e 18 60
e 18 62
e 18 63
e 18 64
e 18 67
e 18 70
e 18 72
e 18 74
e 18 75
e 18 76
e 18 78
e 18 80
e 18 82
e 18 87
e 18 88
e 18 91
e 18 95
e 18 98
e 19 20
e 19 21
e 19 22
e 19 23
e 19 24
e 19 25
e 19 26
e 19 27
e 19 28
e 19 29
e 19 30
e 19 31
e 19 32
e 19 34
e 19 35
e 19 36
e 19 37
e 19 38
e 19 39
e 19 40
e 19 42
e 19 44
e 19 47
e 19 48
e 19 50
e 19 53
e 19 54
e 19 55
e 19 56
e 19 57
e 19 61
e 19 63
e 19 64
e 19 65
e 19 73
e 19 76
e 19 88
e 19 94
e 19 96
e 19 100
e 20 21
e 20 22
e 20 23
e 20 24
e 20 25
e 20 26
e 20 27
e 20 28
e 20 29
e 20 30
e 20 31
e 20 32
e 20 34
e 20 41
e 20 44
e 20 45
e 20 47
e 20 50
e 20 55
e 20 56
e 20 58
e 20 59
e 20 60
e 20 61
e 20 64
e 20 67
e 20 69
e 20 71
e 20 74
e 20 77
e 20 81
e 20 85
e 20 89
e 20 93
e 21 22
e 21 23
e 21 27
e 21 28
e 21 29
e 21 30
e 21 31
e 21 33
e 21 34
e 21 35
e 21 37
e 21 41
e 21 42
e 21 43
e 21 44
e 21 46
e 21 48
e 21 49
e 21 51
e 21 53
e 21 54
e 21 58
e 21 66
e 21 67
e 21 68
e 21 71
e 21 72
e 21 73
e 21 74
e 21 78
e 21 79
e 21 83
e 21 87
e 21 90
e 21 93
e 21 94
e 21 96
e 21 99
e 22 23
e 22 24
e 22 25
e 22 26
e 22 27
e 22 28
e 22 29
e 22 30
e 22 31
e 22 35
e 22 36
e 22 42
e 22 44
e 22 46
e 22 49
e 22 51
e 22 53
e 22 55
e 22 56
e 22 58
e 22 61
e 22 64
e 22 65
e 22 77
e 22 78
e 22 79
e 22 80
e 22 81
e 22 86
e 22 88
e 22 90
e 22 93
e 22 96
e 22 97
e 22 98
e 23 24
e 23 25
e 23 27
e 23 29
e 23 31
e 23 32
e 23 34
e 23 37
e 23 40
e 23 42
e 23 44
e 23 45
e 23 46
e 23 47
e 23 48
e 23 50
e 23 51
e 23 53
e 23 59
e 23 63
e 23 65
e 23 66
e 23 71
e 23 78
e 23 79
e 23 83
e 23 84
e 23 86
e 23 87
e 23 89
e 23 93
e 23 97
e 24 25
e 24 26
e 24 27
e 24 28
e 24 29
e 24 30
e 24 32
e 24 34
e 24 35
e 24 37
e 24 38
e 24 39
e 24 40
e 24 41
e 24 43
e 24 44
e 24 45
e 24 46
e 24 47
e 24 50
e 24 52
e 24 54
e 24 55
e 24 58
e 24 59
e 24 64
e 24 68
e 24 75
e 24 89
e 24 90
e 24 92
e 24 94
e 24 96
e 24 97
e 25 26
e 25 28
e 25 32
e 25 33
e 25 40
e 25 41
e 25 47
e 25 48
e 25 49
e 25 51
e 25 55
e 25 65
e 25 71
e 25 75
e 25 83
e 25 84
e 25 91
e 26 27
e 26 28
e 26 29
e 26 31
e 26 33
e 26 34
e 26 36
e 26 38
e 26 42
e 26 48
e 26 49
e 26 54
e 26 55
e 26 56
e 26 58
e 26 59
e 26 65
e 26 67
e 26 69
e 26 72
e 26 74
e 26 76
e 26 77
e 26 78
e 26 80
e 26 91
e 26 92
e 26 94
e 26 97
e 26 99
e 27 29
e 27 30
e 27 32
e 27 33
e 27 34
e 27 35
e 27 37
e 27 39
e 27 42
e 27 46
e 27 53
e 27 54
e 27 56
e 27 59
e 27 60
e 27 62
e 27 67
e 27 76
e 27 77
e 27 81
e 27 85
e 27 86
e 27 91
e 27 93
e 27 94
e 27 98
e 27 99
e 28 34
e 28 35
e 28 38
e 28 41
e 28 50
e 28 55
e 28 62
e 28 66
e 28 68
e 28 70
e 28 72
e 28 74
e 28 75
e 28 82
e 28 84
e 28 94
e 28 96
e 28 100
e 29 31
e 29 34
e 29 35
e 29 37
e 29 39
e 29 42
e 29 43
e 29 44
e 29 47
e 29 51
e 29 52
e 29 56
e 29 58
e 29 69
e 29 79
e 29 82
e 29 83
e 29 88
e 29 89
e 29 90
e 29 94
e 29 95
e 30 31
e 30 34
e 30 37
e 30 41
e 30 45
e 30 46
e 30 52
e 30 53
e 30 55
e 30 56
e 30 57
e 30 58
e 30 69
e 30 70
e 30 72
e 30 77
e 30 84
e 30 88
e 30 93
e 30 94
e 30 95
e 31 32
e 31 36
e 31 39
e 31 41
e 31 44
e 31 45
e 31 46
e 31 48
e 31 50
e 31 51
e 31 52
e 31 54
e 31 60
e 31 77
e 31 82
e 31 84
e 31 94
e 31 96
e 31 98
e 32 33
e 32 35
e 32 36
e 32 37
e 32 38
e 32 39
e 32 40
e 32 45
e 32 47
e 32 49
e 32 51
e 32 52
e 32 56
e 32 60
e 32 61
e 32 65
e 32 68
e 32 72
e 32 73
e 32 77
e 32 79
e 32 80
e 32 89
e 32 99
e 32 100
e 33 34
e 33 35
e 33 38
e 33 41
e 33 42
e 33 45
e 33 46
e 33 49
e 33 51
e 33 52
e 33 54
e 33 57
e 33 62
e 33 64
e 33 66
e 33 67
e 33 70
e 33 75
e 33 77
e 33 78
e 33 79
e 33 81
e 33 87
e 33 100
e 34 35
e 34 36
e 34 37
e 34 38
e 34 43
e 34 46
e 34 50
e 34 51
e 34 56
e 34 59
e 34 62
e 34 65
e 34 66
e 34 70
e 34 74
e 34 89
e 34 94
e 34 96
e 34 97
e 35 36
e 35 37
e 35 38
e 35 39
e 35 49
e 35 50
e 35 52
e 35 53
e 35 58
e 35 60
e 35 64
e 35 65
e 35 67
e 35 69
e 35 79
e 35 83
e 35 84
e 35 90
e 35 94
e 36 37
e 36 38
e 36 39
e 36 40
e 36 41
e 36 42
e 36 44
e 36 45
e 36 47
e 36 53
e 36 54
e 36 59
e 36 60
e 36 62
e 36 63
e 36 65
e 36 70
e 36 73
e 36 77
e 36 78
e 36 79
e 36 80
e 36 82
e 36 85
e 36 89
e 36 91
e 36 95
e 36 96
e 36 98
e 36 99
e 37 39
e 37 41
e 37 42
e 37 43
e 37 45
e 37 46
e 37 51
e 37 53
e 37 54
e 37 55
e 37 62
e 37 63
e 37 70
e 37 71
e 37 72
e 37 81
e 37 86
e 37 95
e 37 97
e 38 43
e 38 47
e 38 48
e 38 49
e 38 56
e 38 57
e 38 59
e 38 60
e 38 73
e 38 75
e 38 81
e 38 95
e 39 40
e 39 41
e 39 42
e 39 43
e 39 49
e 39 56
e 39 58
e 39 60
e 39 62
e 39 69
e 39 76
e 39 82
e 39 84
e 39 86
e 39 96
e 39 99
e 40 43
e 40 44
e 40 45
e 40 62
e 40 63
e 40 65
e 40 71
e 40 72
e 40 76
e 40 87
e 41 49
e 41 52
e 41 53
e 41 54
e 41 56
e 41 57
e 41 58
e 41 64
e 41 65
e 41 69
e 41 74
e 41 78
e 41 85
e 41 86
e 41 99
e 42 43
e 42 44
e 42 45
e 42 50
e 42 51
e 42 53
e 42 55
e 42 59
e 42 60
e 42 62
e 42 71
e 42 72
e 42 76
e 42 80
e 42 81
e 42 83
e 42 85
e 42 87
e 42 88
e 42 89
e 42 90
e 42 92
e 42 98
e 42 99
e 42 100
e 43 46
e 43 49
e 43 52
e 43 58
e 43 68
e 43 69
e 43 72
e 43 89
e 43 90
e 43 98
e 44 45
e 44 48
e 44 53
e 44 59
e 44 65
e 44 67
e 44 68
e 44 70
e 44 76
e 44 82
e 44 88
e 44 95
e 44 100
e 45 46
e 45 61
e 45 62
e 45 64
e 45 67
e 45 69
e 45 74
e 45 78
e 45 80
e 45 87
e 46 54
e 46 56
e 46 59
e 46 61
e 46 65
e 46 66
e 46 67
e 47 48
e 47 51
e 47 52
e 47 54
e 47 56
e 47 61
e 47 62
e 47 63
e 47 64
e 47 66
e 47 68
e 47 73
e 47 75
e 47 79
e 47 83
e 47 87
e 47 96
e 48 57
e 48 60
e 48 64
e 48 66
e 48 69
e 48 71
e 48 75
e 48 76
e 48 82
e 48 84
e 48 86
e 49 51
e 49 54
e 49 62
e 49 63
e 49 74
e 49 80
e 49 91
e 49 95
e 49 99
e 49 100
e 50 57
e 50 58
e 50 65
e 50 67
e 50 68
e 50 73
e 50 80
e 50 94
e 50 100
e 51 54
e 51 57
e 51 59
e 51 75
e 51 77
e 51 81
e 51 85
e 51 97
e 52 57
e 52 69
e 52 77
e 52 81
e 52 86
e 52 93
e 52 97
e 52 98
e 52 100
e 53 63
e 53 66
e 53 71
e 53 72
e 53 77
e 53 78
e 53 81
e 53 86
e 53 88
e 53 90
e 53 91
e 53 92
e 53 93
e 53 99
e 54 56
e 54 57
e 54 75
e 54 92
e 55 59
e 55 61
e 55 67
e 55 70
e 55 74
e 55 76
e 55 82
e 55 93
e 56 60
e 56 64
e 56 66
e 56 72
e 56 73
e 56 75
e 57 58
e 57 59
e 57 61
e 57 62
e 57 63
e 57 70
e 57 71
e 57 73
e 57 85
e 57 86
e 57 89
e 57 91
e 57 94
e 58 62
e 58 69
e 58 91
e 58 100
e 59 70
e 59 73
e 59 79
e 59 86
e 59 95
e 59 99
e 60 69
e 60 75
e 60 76
e 60 86
e 60 97
e 61 66
e 61 70
e 61 72
e 61 83
e 61 89
e 61 92
e 62 66
e 62 67
e 62 68
e 62 71
e 62 74
e 62 83
e 62 89
e 62 99
e 63 64
e 63 67
e 63 68
e 63 76
e 63 78
e 63 79
e 63 91
e 63 95
e 63 96
e 63 97
e 64 66
e 64 70
e 64 72
e 64 79
e 64 82
e 64 89
e 64 90
e 64 97
e 65 66
e 65 68
e 65 75
e 65 79
e 65 87
e 65 88
e 65 100
e 66 71
e 66 76
e 66 92
e 66 94
e 66 97
e 67 70
e 67 82
e 67 83
e 67 88
e 67 96
e 68 73
e 68 82
e 68 90
e 68 100
e 69 79
e 69 81
e 69 84
e 69 85
e 69 93
e 69 100
e 70 71
e 70 74
e 70 81
e 70 83
e 70 88
e 70 91
e 70 98
e 71 73
e 71 74
e 71 75
e 71 80
e 71 97
e 72 79
e 72 81
e 72 95
e 72 98
e 73 87
e 73 93
e 74 80
e 74 84
e 75 84
e 75 90
e 75 91
e 76 78
e 76 81
e 76 82
e 76 83
e 76 92
e 76 93
e 76 97
e 76 98
e 77 87
e 77 89
e 77 93
e 78 95
e 78 96
e 78 99
e 79 82
e 79 85
e 79 90
e 79 92
e 80 90
e 80 92
e 80 95
e 81 83
e 82 92
e 82 99
e 83 84
e 84 94
e 84 100
e 87 92
e 91 98
e 92 100
